(set-logic HORN)
(declare-fun assign_266_35_8_abs0 (Int Int Int Int Int) Bool)
(declare-fun assert_257_34_8_abs0 (Int Int Int Int Int) Bool)
(declare-fun assert_240_33_8_abs0 (Int Int Int Int Int) Bool)
(declare-fun while_269_31_6_abs0 (Int Int Int Int Int) Bool)
(declare-fun assign_200_30_6_abs0 (Int Int Int Int Int) Bool)
(declare-fun assign_191_26_8_abs0 (Int Int Int Int Int) Bool)
(declare-fun arrayassign_182_25_8_abs0 (Int Int Int Int Int) Bool)
(declare-fun assert_165_24_8_abs0 (Int Int Int Int Int) Bool)
(declare-fun while_194_22_6_abs0 (Int Int Int Int Int) Bool)
(declare-fun assign_125_21_6_abs0 (Int Int Int Int Int) Bool)
(declare-fun assign_116_17_8_abs0 (Int Int Int Int Int) Bool)
(declare-fun arrayassign_107_16_8_abs0 (Int Int Int Int Int) Bool)
(declare-fun assign_94_15_8_abs0 (Int Int Int Int Int) Bool)
(declare-fun assert_82_14_8_abs0 (Int Int Int Int Int) Bool)
(declare-fun while_119_12_6_abs0 (Int Int Int Int Int) Bool)
(declare-fun assign_42_11_6_abs0 (Int Int Int Int Int) Bool)
(declare-fun assign_36_8_6_abs0 (Int Int Int Int Int) Bool)
(declare-fun end_abs0 (Int Int Int Int Int) Bool)
(declare-fun start_abs0 (Int Int Int Int Int) Bool)
(assert (forall ((v Int) (N Int) (i Int) (vabs_f_f Int) (a_select Int)) (start_abs0 vabs_f_f a_select v N i)))
(assert (forall ((i Int) (N Int) (v Int) (vabs_0_f_f Int) (a_select Int)) (=> (start_abs0 vabs_0_f_f a_select v N i) (assign_36_8_6_abs0 vabs_0_f_f a_select v N i))))
(assert (forall ((rnd Int) (i Int) (N Int) (v Int) (vabs_0_f_f Int) (a_select Int)) (=> (assign_36_8_6_abs0 vabs_0_f_f a_select v N i) (assign_42_11_6_abs0 vabs_0_f_f a_select v rnd i))))
(assert (forall ((i Int) (N Int) (v Int) (vabs_0_f_f Int) (a_select Int)) (=> (assign_42_11_6_abs0 vabs_0_f_f a_select v N i) (while_119_12_6_abs0 vabs_0_f_f a_select v N 0))))
(assert (forall ((v Int) (N Int) (i Int) (vabs_0_f_f Int) (a_select Int)) (=> (and (while_119_12_6_abs0 vabs_0_f_f a_select v N i) (< i N)) (assert_82_14_8_abs0 vabs_0_f_f a_select v N i))))
(assert (forall ((v Int) (N Int) (i Int) (vabs_0_f_f Int) (a_select Int)) (=> (and (while_119_12_6_abs0 vabs_0_f_f a_select v N i) (not (< i N))) (assign_125_21_6_abs0 vabs_0_f_f a_select v N i))))
(assert (forall ((k Int) (i Int) (N Int) (v Int) (a_select Int)) (=> (and (assert_82_14_8_abs0 k a_select v N i) (<= 0 k) (< k i)) (= (mod a_select 2) 0))))
(assert (forall ((i Int) (N Int) (v Int) (vabs_0_f_f Int) (a_select Int)) (=> (assert_82_14_8_abs0 vabs_0_f_f a_select v N i) (assign_94_15_8_abs0 vabs_0_f_f a_select v N i))))
(assert (forall ((rnd Int) (i Int) (N Int) (v Int) (vabs_0_f_f Int) (a_select Int)) (=> (assign_94_15_8_abs0 vabs_0_f_f a_select v N i) (arrayassign_107_16_8_abs0 vabs_0_f_f a_select rnd N i))))
(assert (forall ((i Int) (N Int) (v Int) (vabs_0_f_f Int) (a_select Int)) (=> (arrayassign_107_16_8_abs0 vabs_0_f_f a_select v N i) (assign_116_17_8_abs0 vabs_0_f_f (ite (= i vabs_0_f_f) (* v 2) a_select) v N i))))
(assert (forall ((i Int) (N Int) (v Int) (vabs_0_f_f Int) (a_select Int)) (=> (assign_116_17_8_abs0 vabs_0_f_f a_select v N i) (while_119_12_6_abs0 vabs_0_f_f a_select v N (+ i 1)))))
(assert (forall ((i Int) (N Int) (v Int) (vabs_0_f_f Int) (a_select Int)) (=> (assign_125_21_6_abs0 vabs_0_f_f a_select v N i) (while_194_22_6_abs0 vabs_0_f_f a_select v N 0))))
(assert (forall ((v Int) (N Int) (i Int) (vabs_0_f_f Int) (a_select Int)) (=> (and (while_194_22_6_abs0 vabs_0_f_f a_select v N i) (< i N)) (assert_165_24_8_abs0 vabs_0_f_f a_select v N i))))
(assert (forall ((v Int) (N Int) (i Int) (vabs_0_f_f Int) (a_select Int)) (=> (and (while_194_22_6_abs0 vabs_0_f_f a_select v N i) (not (< i N))) (assign_200_30_6_abs0 vabs_0_f_f a_select v N i))))
(assert (forall ((k Int) (i Int) (N Int) (v Int) (a_select Int)) (=> (and (assert_165_24_8_abs0 k a_select v N i) (<= 0 k) (< k i)) (= (mod a_select 2) 1))))
(assert (forall ((i Int) (N Int) (v Int) (vabs_0_f_f Int) (a_select Int)) (=> (assert_165_24_8_abs0 vabs_0_f_f a_select v N i) (arrayassign_182_25_8_abs0 vabs_0_f_f a_select v N i))))
(assert (forall ((i Int) (N Int) (v Int) (vabs_0_f_f Int) (a_select_0 Int) (a_select Int)) (=> (and (=> (= i vabs_0_f_f) (= a_select a_select_0)) (arrayassign_182_25_8_abs0 vabs_0_f_f a_select v N i) (arrayassign_182_25_8_abs0 i a_select_0 v N i)) (assign_191_26_8_abs0 vabs_0_f_f (ite (= i vabs_0_f_f) (+ a_select_0 1) a_select) v N i))))
(assert (forall ((i Int) (N Int) (v Int) (vabs_0_f_f Int) (a_select Int)) (=> (assign_191_26_8_abs0 vabs_0_f_f a_select v N i) (while_194_22_6_abs0 vabs_0_f_f a_select v N (+ i 1)))))
(assert (forall ((i Int) (N Int) (v Int) (vabs_0_f_f Int) (a_select Int)) (=> (assign_200_30_6_abs0 vabs_0_f_f a_select v N i) (while_269_31_6_abs0 vabs_0_f_f a_select v N 0))))
(assert (forall ((v Int) (N Int) (i Int) (vabs_0_f_f Int) (a_select Int)) (=> (and (while_269_31_6_abs0 vabs_0_f_f a_select v N i) (< i N)) (assert_240_33_8_abs0 vabs_0_f_f a_select v N i))))
(assert (forall ((v Int) (N Int) (i Int) (vabs_0_f_f Int) (a_select Int)) (=> (and (while_269_31_6_abs0 vabs_0_f_f a_select v N i) (not (< i N))) (end_abs0 vabs_0_f_f a_select v N i))))
(assert (forall ((k Int) (i Int) (N Int) (v Int) (a_select Int)) (=> (and (assert_240_33_8_abs0 k a_select v N i) (<= 0 k) (< k N)) (= (mod a_select 2) 1))))
(assert (forall ((i Int) (N Int) (v Int) (vabs_0_f_f Int) (a_select Int)) (=> (assert_240_33_8_abs0 vabs_0_f_f a_select v N i) (assert_257_34_8_abs0 vabs_0_f_f a_select v N i))))
(assert (forall ((i Int) (N Int) (v Int) (a_select Int)) (=> (assert_257_34_8_abs0 i a_select v N i) (= (mod a_select 2) 1))))
(assert (forall ((i Int) (N Int) (v Int) (vabs_0_f_f Int) (a_select Int)) (=> (assert_257_34_8_abs0 vabs_0_f_f a_select v N i) (assign_266_35_8_abs0 vabs_0_f_f a_select v N i))))
(assert (forall ((i Int) (N Int) (v Int) (vabs_0_f_f Int) (a_select Int)) (=> (assign_266_35_8_abs0 vabs_0_f_f a_select v N i) (while_269_31_6_abs0 vabs_0_f_f a_select v N (+ i 1)))))
(check-sat)